c SAT Generator for power-law distributed variable frequencies
c -g u -v 20 -c 91 -k 3 -p 2.750000 -b 3.200000 -f /home/schmidt/Devel/ni-kop-sat/data/ensemble/ruf20-91/ruf20-91-218 -u 1 -U 1 -s 3782487611
p cnf 20 91
4 7 15 0
9 -15 16 0
9 15 -19 0
4 11 -17 0
-3 4 13 0
-5 15 18 0
1 14 16 0
5 -9 -20 0
8 16 19 0
-2 -15 -20 0
11 -12 16 0
-13 14 18 0
-10 12 14 0
-6 -8 -13 0
-1 -12 13 0
-4 -6 -17 0
5 -7 -19 0
-4 6 -9 0
3 -12 13 0
1 5 8 0
7 17 18 0
-7 10 20 0
10 -18 20 0
-4 19 20 0
2 -4 9 0
11 -15 17 0
-4 -5 10 0
-3 4 20 0
-2 -16 -18 0
13 -14 18 0
-9 19 20 0
1 3 -18 0
-5 11 13 0
10 13 -16 0
6 -9 -20 0
-2 -7 17 0
-7 11 -18 0
1 -6 19 0
-1 -10 -12 0
9 13 16 0
1 -12 -18 0
-5 -12 -19 0
13 -14 17 0
5 9 -11 0
10 -12 14 0
11 14 15 0
9 12 -13 0
-1 -3 18 0
-7 11 -15 0
-8 -9 10 0
-7 -11 19 0
-6 7 9 0
5 9 20 0
1 6 17 0
1 -7 -11 0
-4 -11 -19 0
3 -5 18 0
2 10 -18 0
12 14 16 0
2 -14 17 0
-8 12 20 0
2 10 -15 0
10 11 -18 0
9 16 20 0
3 -8 -20 0
-6 -18 -20 0
-2 -5 -14 0
4 -8 13 0
11 12 -20 0
1 -5 10 0
-3 -6 -13 0
13 16 17 0
12 -18 -20 0
-2 -13 19 0
5 -12 -20 0
-3 9 -15 0
-1 7 -20 0
5 -19 20 0
6 9 14 0
-2 3 15 0
13 17 -19 0
4 12 14 0
-7 -8 10 0
10 12 13 0
-4 14 20 0
4 10 -19 0
11 -14 18 0
10 -18 -19 0
8 -12 14 0
7 10 11 0
-6 12 -20 0
